; benchmark generated from python API
(set-info :status unknown)
(declare-fun q_v0q0.i () Real)
(declare-fun q_v0q0.r () Real)
(declare-fun q_v0q1.i () Real)
(declare-fun q_v0q1.r () Real)
(declare-fun |anc_v0q0\|q_v0q0.i| () Real)
(declare-fun |anc_v0q0\|q_v0q0.r| () Real)
(declare-fun |anc_v0q0\|q_v0q1.i| () Real)
(declare-fun |anc_v0q0\|q_v0q1.r| () Real)
(declare-fun |anc_v0q1\|q_v0q0.i| () Real)
(declare-fun |anc_v0q1\|q_v0q0.r| () Real)
(declare-fun |anc_v0q1\|q_v0q1.i| () Real)
(declare-fun |anc_v0q1\|q_v0q1.r| () Real)
(declare-fun |anc_v1q0\|q_v0q0.i| () Real)
(declare-fun |anc_v1q0\|q_v0q0.r| () Real)
(declare-fun |anc_v1q0\|q_v0q1.i| () Real)
(declare-fun |anc_v1q0\|q_v0q1.r| () Real)
(declare-fun |anc_v1q1\|q_v0q0.i| () Real)
(declare-fun |anc_v1q1\|q_v0q0.r| () Real)
(declare-fun |anc_v1q1\|q_v0q1.i| () Real)
(declare-fun |anc_v1q1\|q_v0q1.r| () Real)
(declare-fun f (Int) Int)
(declare-fun |anc_v2q0\|q_v1q0.i| () Real)
(declare-fun |anc_v2q0\|q_v1q0.r| () Real)
(declare-fun |anc_v2q0\|q_v1q1.i| () Real)
(declare-fun |anc_v2q0\|q_v1q1.r| () Real)
(declare-fun |anc_v2q1\|q_v1q0.i| () Real)
(declare-fun |anc_v2q1\|q_v1q0.r| () Real)
(declare-fun |anc_v2q1\|q_v1q1.i| () Real)
(declare-fun |anc_v2q1\|q_v1q1.r| () Real)
(declare-fun |anc_v2q0\|q_v2q0.i| () Real)
(declare-fun |anc_v2q0\|q_v2q0.r| () Real)
(declare-fun |anc_v2q0\|q_v2q1.i| () Real)
(declare-fun |anc_v2q0\|q_v2q1.r| () Real)
(declare-fun |anc_v2q1\|q_v2q0.i| () Real)
(declare-fun |anc_v2q1\|q_v2q0.r| () Real)
(declare-fun |anc_v2q1\|q_v2q1.i| () Real)
(declare-fun |anc_v2q1\|q_v2q1.r| () Real)
(declare-fun q_v3q0.i () Real)
(declare-fun q_v3q0.r () Real)
(declare-fun q_v3q1.i () Real)
(declare-fun q_v3q1.r () Real)
(declare-fun Pr_q_v3_1 () Real)
(declare-fun Pr_q_v3_0 () Real)
(declare-fun Pr_q_v3_sum () Real)
(declare-fun meas_cert () Bool)
(declare-fun meas_q () Int)
(declare-fun q_v0c () Int)
(declare-fun deutsch_ret () Int)
(assert
 (and (= q_v0q0.r 1.0) (= 0.0 q_v0q0.i)))
(assert
 (and (= q_v0q1.r 0.0) (= 0.0 q_v0q1.i)))
(assert
 (and (= |anc_v0q0\|q_v0q0.r| 0.0) (= 0.0 |anc_v0q0\|q_v0q0.i|)))
(assert
 (and (= |anc_v0q0\|q_v0q1.r| 0.0) (= 0.0 |anc_v0q0\|q_v0q1.i|)))
(assert
 (and (= |anc_v0q1\|q_v0q0.r| q_v0q0.r) (= |anc_v0q1\|q_v0q0.i| q_v0q0.i)))
(assert
 (and (= |anc_v0q1\|q_v0q1.r| q_v0q1.r) (= |anc_v0q1\|q_v0q1.i| q_v0q1.i)))
(assert
 (let ((?x312 (* (/ 1.0 2.0) |anc_v0q1\|q_v0q1.i|)))
 (let ((?x241 (* (/ 1.0 2.0) |anc_v0q1\|q_v0q0.i|)))
 (let ((?x297 (* (/ 1.0 2.0) |anc_v0q0\|q_v0q1.i|)))
 (let ((?x339 (* (/ 1.0 2.0) |anc_v0q0\|q_v0q0.i|)))
 (let ((?x278 (* (/ 1.0 2.0) |anc_v0q1\|q_v0q1.r|)))
 (let ((?x220 (* (/ 1.0 2.0) |anc_v0q1\|q_v0q0.r|)))
 (let ((?x244 (* (/ 1.0 2.0) |anc_v0q0\|q_v0q1.r|)))
 (let ((?x317 (* (/ 1.0 2.0) |anc_v0q0\|q_v0q0.r|)))
 (and (= |anc_v1q0\|q_v0q0.r| (+ ?x317 ?x244 ?x220 ?x278)) (= |anc_v1q0\|q_v0q0.i| (+ ?x339 ?x297 ?x241 ?x312))))))))))))
(assert
 (let ((?x261 (* (- (/ 1.0 2.0)) |anc_v0q1\|q_v0q1.i|)))
 (let ((?x241 (* (/ 1.0 2.0) |anc_v0q1\|q_v0q0.i|)))
 (let ((?x212 (* (- (/ 1.0 2.0)) |anc_v0q0\|q_v0q1.i|)))
 (let ((?x339 (* (/ 1.0 2.0) |anc_v0q0\|q_v0q0.i|)))
 (let ((?x227 (* (- (/ 1.0 2.0)) |anc_v0q1\|q_v0q1.r|)))
 (let ((?x220 (* (/ 1.0 2.0) |anc_v0q1\|q_v0q0.r|)))
 (let ((?x322 (* (- (/ 1.0 2.0)) |anc_v0q0\|q_v0q1.r|)))
 (let ((?x317 (* (/ 1.0 2.0) |anc_v0q0\|q_v0q0.r|)))
 (and (= |anc_v1q0\|q_v0q1.r| (+ ?x317 ?x322 ?x220 ?x227)) (= |anc_v1q0\|q_v0q1.i| (+ ?x339 ?x212 ?x241 ?x261))))))))))))
(assert
 (let ((?x261 (* (- (/ 1.0 2.0)) |anc_v0q1\|q_v0q1.i|)))
 (let ((?x74 (* (- (/ 1.0 2.0)) |anc_v0q1\|q_v0q0.i|)))
 (let ((?x297 (* (/ 1.0 2.0) |anc_v0q0\|q_v0q1.i|)))
 (let ((?x339 (* (/ 1.0 2.0) |anc_v0q0\|q_v0q0.i|)))
 (let ((?x227 (* (- (/ 1.0 2.0)) |anc_v0q1\|q_v0q1.r|)))
 (let ((?x57 (* (- (/ 1.0 2.0)) |anc_v0q1\|q_v0q0.r|)))
 (let ((?x244 (* (/ 1.0 2.0) |anc_v0q0\|q_v0q1.r|)))
 (let ((?x317 (* (/ 1.0 2.0) |anc_v0q0\|q_v0q0.r|)))
 (and (= |anc_v1q1\|q_v0q0.r| (+ ?x317 ?x244 ?x57 ?x227)) (= |anc_v1q1\|q_v0q0.i| (+ ?x339 ?x297 ?x74 ?x261))))))))))))
(assert
 (let ((?x312 (* (/ 1.0 2.0) |anc_v0q1\|q_v0q1.i|)))
 (let ((?x74 (* (- (/ 1.0 2.0)) |anc_v0q1\|q_v0q0.i|)))
 (let ((?x212 (* (- (/ 1.0 2.0)) |anc_v0q0\|q_v0q1.i|)))
 (let ((?x339 (* (/ 1.0 2.0) |anc_v0q0\|q_v0q0.i|)))
 (let ((?x278 (* (/ 1.0 2.0) |anc_v0q1\|q_v0q1.r|)))
 (let ((?x57 (* (- (/ 1.0 2.0)) |anc_v0q1\|q_v0q0.r|)))
 (let ((?x322 (* (- (/ 1.0 2.0)) |anc_v0q0\|q_v0q1.r|)))
 (let ((?x317 (* (/ 1.0 2.0) |anc_v0q0\|q_v0q0.r|)))
 (and (= |anc_v1q1\|q_v0q1.r| (+ ?x317 ?x322 ?x57 ?x278)) (= |anc_v1q1\|q_v0q1.i| (+ ?x339 ?x212 ?x74 ?x312))))))))))))
(assert
 (let ((?x21 (f 0)))
 (let (($x23 (= ?x21 1)))
 (let ((?x50 (ite $x23 1.0 0.0)))
 (let ((?x243 (* (- 1.0) ?x50)))
 (let ((?x122 (+ 1.0 ?x243)))
 (let (($x184 (= |anc_v2q0\|q_v1q0.i| (+ (* |anc_v1q0\|q_v0q0.i| ?x122) (* |anc_v1q0\|q_v0q1.i| ?x50)))))
 (let (($x19 (= |anc_v2q0\|q_v1q0.r| (+ (* |anc_v1q0\|q_v0q0.r| ?x122) (* |anc_v1q0\|q_v0q1.r| ?x50)))))
 (and $x19 $x184)))))))))
(assert
 (let ((?x120 (+ 1.0 (* (- 1.0) (ite (= (f 1) 1) 1.0 0.0)))))
 (let ((?x189 (+ (* |anc_v1q0\|q_v0q0.i| (ite (= (f 1) 1) 1.0 0.0)) (* |anc_v1q0\|q_v0q1.i| ?x120))))
 (let ((?x288 (+ (* |anc_v1q0\|q_v0q0.r| (ite (= (f 1) 1) 1.0 0.0)) (* |anc_v1q0\|q_v0q1.r| ?x120))))
 (and (= |anc_v2q0\|q_v1q1.r| ?x288) (= |anc_v2q0\|q_v1q1.i| ?x189))))))
(assert
 (let ((?x21 (f 0)))
 (let (($x23 (= ?x21 1)))
 (let ((?x50 (ite $x23 1.0 0.0)))
 (let ((?x243 (* (- 1.0) ?x50)))
 (let ((?x122 (+ 1.0 ?x243)))
 (let (($x64 (= |anc_v2q1\|q_v1q0.i| (+ (* |anc_v1q1\|q_v0q0.i| ?x122) (* |anc_v1q1\|q_v0q1.i| ?x50)))))
 (let (($x49 (= |anc_v2q1\|q_v1q0.r| (+ (* |anc_v1q1\|q_v0q0.r| ?x122) (* |anc_v1q1\|q_v0q1.r| ?x50)))))
 (and $x49 $x64)))))))))
(assert
 (let ((?x120 (+ 1.0 (* (- 1.0) (ite (= (f 1) 1) 1.0 0.0)))))
 (let ((?x281 (+ (* |anc_v1q1\|q_v0q0.i| (ite (= (f 1) 1) 1.0 0.0)) (* |anc_v1q1\|q_v0q1.i| ?x120))))
 (let ((?x173 (+ (* |anc_v1q1\|q_v0q0.r| (ite (= (f 1) 1) 1.0 0.0)) (* |anc_v1q1\|q_v0q1.r| ?x120))))
 (and (= |anc_v2q1\|q_v1q1.r| ?x173) (= |anc_v2q1\|q_v1q1.i| ?x281))))))
(assert
 (let ((?x62 (* (/ 1.0 2.0) |anc_v2q1\|q_v1q1.i|)))
 (let ((?x280 (* (/ 1.0 2.0) |anc_v2q1\|q_v1q0.i|)))
 (let ((?x286 (* (/ 1.0 2.0) |anc_v2q0\|q_v1q1.i|)))
 (let ((?x338 (* (/ 1.0 2.0) |anc_v2q0\|q_v1q0.i|)))
 (let ((?x330 (* (/ 1.0 2.0) |anc_v2q1\|q_v1q1.r|)))
 (let ((?x332 (* (/ 1.0 2.0) |anc_v2q1\|q_v1q0.r|)))
 (let ((?x291 (* (/ 1.0 2.0) |anc_v2q0\|q_v1q1.r|)))
 (let ((?x293 (* (/ 1.0 2.0) |anc_v2q0\|q_v1q0.r|)))
 (and (= |anc_v2q0\|q_v2q0.r| (+ ?x293 ?x291 ?x332 ?x330)) (= |anc_v2q0\|q_v2q0.i| (+ ?x338 ?x286 ?x280 ?x62))))))))))))
(assert
 (let ((?x328 (* (- (/ 1.0 2.0)) |anc_v2q1\|q_v1q1.i|)))
 (let ((?x280 (* (/ 1.0 2.0) |anc_v2q1\|q_v1q0.i|)))
 (let ((?x39 (* (- (/ 1.0 2.0)) |anc_v2q0\|q_v1q1.i|)))
 (let ((?x338 (* (/ 1.0 2.0) |anc_v2q0\|q_v1q0.i|)))
 (let ((?x323 (* (- (/ 1.0 2.0)) |anc_v2q1\|q_v1q1.r|)))
 (let ((?x332 (* (/ 1.0 2.0) |anc_v2q1\|q_v1q0.r|)))
 (let ((?x290 (* (- (/ 1.0 2.0)) |anc_v2q0\|q_v1q1.r|)))
 (let ((?x293 (* (/ 1.0 2.0) |anc_v2q0\|q_v1q0.r|)))
 (and (= |anc_v2q0\|q_v2q1.r| (+ ?x293 ?x290 ?x332 ?x323)) (= |anc_v2q0\|q_v2q1.i| (+ ?x338 ?x39 ?x280 ?x328))))))))))))
(assert
 (let ((?x328 (* (- (/ 1.0 2.0)) |anc_v2q1\|q_v1q1.i|)))
 (let ((?x178 (* (- (/ 1.0 2.0)) |anc_v2q1\|q_v1q0.i|)))
 (let ((?x286 (* (/ 1.0 2.0) |anc_v2q0\|q_v1q1.i|)))
 (let ((?x338 (* (/ 1.0 2.0) |anc_v2q0\|q_v1q0.i|)))
 (let ((?x323 (* (- (/ 1.0 2.0)) |anc_v2q1\|q_v1q1.r|)))
 (let ((?x254 (* (- (/ 1.0 2.0)) |anc_v2q1\|q_v1q0.r|)))
 (let ((?x291 (* (/ 1.0 2.0) |anc_v2q0\|q_v1q1.r|)))
 (let ((?x293 (* (/ 1.0 2.0) |anc_v2q0\|q_v1q0.r|)))
 (and (= |anc_v2q1\|q_v2q0.r| (+ ?x293 ?x291 ?x254 ?x323)) (= |anc_v2q1\|q_v2q0.i| (+ ?x338 ?x286 ?x178 ?x328))))))))))))
(assert
 (let ((?x62 (* (/ 1.0 2.0) |anc_v2q1\|q_v1q1.i|)))
 (let ((?x178 (* (- (/ 1.0 2.0)) |anc_v2q1\|q_v1q0.i|)))
 (let ((?x39 (* (- (/ 1.0 2.0)) |anc_v2q0\|q_v1q1.i|)))
 (let ((?x338 (* (/ 1.0 2.0) |anc_v2q0\|q_v1q0.i|)))
 (let ((?x330 (* (/ 1.0 2.0) |anc_v2q1\|q_v1q1.r|)))
 (let ((?x254 (* (- (/ 1.0 2.0)) |anc_v2q1\|q_v1q0.r|)))
 (let ((?x290 (* (- (/ 1.0 2.0)) |anc_v2q0\|q_v1q1.r|)))
 (let ((?x293 (* (/ 1.0 2.0) |anc_v2q0\|q_v1q0.r|)))
 (and (= |anc_v2q1\|q_v2q1.r| (+ ?x293 ?x290 ?x254 ?x330)) (= |anc_v2q1\|q_v2q1.i| (+ ?x338 ?x39 ?x178 ?x62))))))))))))
(assert
 (and (= q_v3q0.r |anc_v2q1\|q_v2q0.r|) (= q_v3q0.i |anc_v2q1\|q_v2q0.i|)))
(assert
 (and (= q_v3q1.r |anc_v2q1\|q_v2q1.r|) (= q_v3q1.i |anc_v2q1\|q_v2q1.i|)))
(assert
 (and (and (<= Pr_q_v3_0 1.0) (>= Pr_q_v3_0 0.0)) (and (<= Pr_q_v3_1 1.0) (>= Pr_q_v3_1 0.0))))
(assert
 (= Pr_q_v3_sum (+ Pr_q_v3_0 Pr_q_v3_1)))
(assert
 (= Pr_q_v3_sum 1.0))
(assert
 (= Pr_q_v3_0 (+ (+ (^ q_v3q0.r 2.0) (^ q_v3q0.i 2.0)))))
(assert
 (= Pr_q_v3_1 (+ (+ (^ q_v3q1.r 2.0) (^ q_v3q1.i 2.0)))))
(assert
 (let (($x140 (= Pr_q_v3_1 1.0)))
 (let (($x52 (= Pr_q_v3_0 1.0)))
 (let (($x310 (or $x52 $x140)))
 (let (($x141 (= meas_cert true)))
 (and (=> $x310 $x141) (=> $x141 $x310)))))))
(assert
 (and (=> (= Pr_q_v3_0 1.0) (= meas_q 0)) (=> (= meas_q 0) (= Pr_q_v3_0 1.0))))
(assert
 (and (=> (= Pr_q_v3_1 1.0) (= meas_q 1)) (=> (= meas_q 1) (= Pr_q_v3_1 1.0))))
(assert
 (= q_v0c meas_q))
(assert
 (= deutsch_ret q_v0c))
(check-sat)
